SiGeH                     
   1     
    16.7199999999999989    0.0000000000000000    0.0000000000000000
     0.0000000000000000   16.7199999999999989    0.0000000000000000
     0.0000000000000000    0.0000000000000000   16.7199999999999989
   Si   Ge   H 
     5     5    16
Direct
  0.4183163902542226  0.4181150194520617  0.4163067386698202
  0.5814171474804486  0.5816567547605148  0.4156256271960438
  0.5837686370841639  0.4169098829220467  0.5836307146031225
  0.4167355563958407  0.5834967911752164  0.5836992075750039
  0.4996781985967368  0.4997389419047269  0.3356640243903331
  0.6650759665021103  0.5000005419098035  0.4993251627995107
  0.4995707532169495  0.6650619416996169  0.4993914078546603
  0.5004437119708938  0.5003615443922240  0.6656692210550711
  0.3350446034287768  0.5000864539029122  0.5000835956681061
  0.5005503816569830  0.3350282910917514  0.5000093318467979
  0.5508573522551263  0.4484762614257344  0.2827123791387062
  0.4482498708282532  0.5508086290103026  0.2827694975090487
  0.7206725801572890  0.4470125340299986  0.4464978131760360
  0.7200343279573833  0.5543127926079205  0.5514460650468327
  0.4464110259013865  0.7205345665031341  0.4466065342192858
  0.5537568892843051  0.7201477575811540  0.5515094475383651
  0.5535650640452239  0.5536002906450362  0.7207241217264810
  0.4475817894563565  0.4473370904648487  0.7211792191997657
  0.2803284309124379  0.4459691566269247  0.5526607398641588
  0.2792049572216777  0.5528751298265091  0.4473128955351480
  0.4466063213973459  0.2801335930138154  0.5525781928465378
  0.5534734867323253  0.2793623646172585  0.4471892989140951
  0.3664286007846982  0.3661117046346267  0.3646729811692936
  0.6330661871388538  0.6334668938630487  0.3635601651660731
  0.6357562653598977  0.3652705105054754  0.6354723165324025
  0.3649784704874890  0.6353267145433816  0.6355812911899288
 
 
